\* Problem: Unknown *\

Maximize
 obj: + xp_0_0 + xp_0_1 + xp_0_2 + xp_0_3 + xp_0_4 + xp_0_5 + xp_0_6
 + xp_0_7 + xp_0_8 + xp_0_9 + xp_1_0 + xp_1_1 + xp_2_0 + xp_2_1 + xp_2_2
 + xp_2_3 + xp_2_4 + xp_2_5 + xp_3_0 + xp_3_1 + xp_3_2 + xp_4_0 + xp_4_1
 + xp_5_0 + xp_5_1 + xp_5_2 + xp_6_0 + xp_6_1 + xp_6_2 + xp_6_3 + xp_6_4
 + xp_7_0 + xp_7_1 + xp_8_0 + xp_8_1 + xp_9_0 + xp_10_0 + xp_10_1
 + xp_11_0 + xp_11_1 + xp_11_2 + xp_11_3 + xp_11_4 + xp_11_5 + xp_12_0
 + xp_13_0 + xp_13_1 + xp_14_0 + xp_14_1 + xp_14_2 + xp_15_0 + xp_16_0
 + xp_16_1 + xp_17_0 + xp_17_1 + xp_17_2 + xp_17_3 + xp_17_4 + xp_17_5
 + xp_18_0 + xp_18_1 + xp_18_2 + xp_18_3 + xp_18_4 + xp_18_5 + xp_18_6
 + xp_19_0 + xp_19_1 + xp_19_2 + xp_19_3 + xp_19_4 + xp_19_5 + xp_20_0
 + xp_20_1 + xp_20_2 + xp_20_3 + xp_21_0 + xp_21_1 + xp_21_2 + xp_21_3
 + xp_21_4 + xp_22_0 + xp_22_1 + xp_22_2 + xp_22_3 + xp_22_4 + xp_22_5
 + xp_22_6 + xp_22_7 + xp_22_8 + xp_22_9 + xp_22_10 + xp_23_0 + xp_23_1
 + xp_23_2 + xp_23_3 + xp_23_4 + xp_23_5

Subject To
 r_1: 0 xp_0_0 <= 25.6427184466019
 r_2: + xp_22_4 + xp_18_5 + xp_18_1 + xp_5_2 + xp_2_5 + xp_2_3
 <= 25.3980019336126
 r_3: + xp_23_3 + xp_22_6 + xp_21_1 + xp_18_4 + xp_18_3 + xp_17_3
 + xp_6_2 <= 25.8704453441296
 r_4: + xp_18_6 + xp_17_2 + xp_15_0 <= 26.7924528301887
 r_5: + xp_18_0 <= 25.0949747535465
 r_6: + xp_19_5 + xp_18_2 <= 25.7482284285119
 r_7: + xp_20_3 <= 25.6427184466019
 r_8: + xp_22_9 + xp_22_2 + xp_11_5 + xp_11_3 + xp_5_1 + xp_3_2 + xp_2_1
 <= 25.3980019336126
 r_9: + xp_23_2 + xp_22_5 + xp_11_1 + xp_6_3 + xp_3_1
 <= 25.8704453441296
 r_10: + xp_3_0 <= 26.7924528301887
 r_11: + xp_18_4 + xp_18_2 + xp_11_2 + xp_0_9 + xp_0_8
 <= 25.0949747535465
 r_12: + xp_11_0 <= 25.7482284285119
 r_13: + xp_11_4 <= 26.6425279789335
 r_14: + xp_21_2 + xp_14_0 + xp_0_7 + xp_0_1 <= 25.3980019336126
 r_15: + xp_21_0 + xp_19_3 <= 25.8704453441296
 r_16: + xp_22_1 + xp_21_3 + xp_14_2 + xp_0_5 + xp_0_3 + xp_0_2
 <= 26.0136785539814
 r_17: + xp_0_0 <= 25.0949747535465
 r_18: + xp_21_1 + xp_19_5 + xp_4_0 <= 25.6427184466019
 r_19: + xp_19_0 + xp_0_9 <= 25.6427184466019
 r_20: + xp_21_4 + xp_19_4 + xp_19_2 + xp_19_1 + xp_14_1 + xp_4_1
 + xp_0_8 + xp_0_6 + xp_0_4 <= 26.6425279789335
 r_21: + xp_20_1 <= 25.3980019336126
 r_22: + xp_21_2 + xp_7_1 <= 25.8704453441296
 r_23: + xp_22_4 + xp_22_3 + xp_22_2 <= 26.0136785539814
 r_24: + xp_23_5 + xp_22_9 + xp_22_8 + xp_18_5 + xp_11_5 + xp_6_1
 + xp_3_2 + xp_0_7 + xp_0_4 <= 25.5089820359281
 r_25: 0 xp_0_0 <= 26.6425279789335
 r_26: + xp_18_1 + xp_0_6 + xp_0_1 <= 25.0949747535465
 r_27: + xp_11_4 + xp_11_3 + xp_4_1 <= 25.3980019336126
 r_28: + xp_19_2 + xp_10_1 <= 25.3980019336126
 r_29: + xp_20_2 <= 25.8704453441296
 r_30: + xp_2_0 <= 25.8704453441296
 r_31: + xp_23_3 + xp_23_2 + xp_22_6 + xp_22_5 + xp_18_3 + xp_17_3
 + xp_6_3 + xp_6_2 + xp_3_1 + xp_2_5 + xp_2_4 <= 25.5089820359281
 r_32: + xp_2_2 <= 26.6425279789335
 r_33: + xp_11_1 + xp_2_3 <= 25.8704453441296
 r_34: + xp_19_4 + xp_19_3 + xp_18_4 + xp_2_1 <= 25.8704453441296
 r_35: 0 xp_0_0 <= 26.0136785539814
 r_36: + xp_14_2 + xp_9_0 <= 26.0136785539814
 r_37: + xp_21_3 + xp_13_1 + xp_8_1 + xp_6_4 + xp_0_3
 <= 25.5089820359281
 r_38: + xp_23_4 + xp_1_1 <= 26.9620253164557
 r_39: + xp_17_1 + xp_0_5 <= 26.7924528301887
 r_40: + xp_0_2 <= 25.0949747535465
 r_41: + xp_12_0 + xp_2_4 <= 25.5089820359281
 r_42: + xp_21_3 <= 25.5089820359281
 r_43: + xp_22_9 + xp_16_0 <= 25.5089820359281
 r_44: + xp_23_5 + xp_23_3 + xp_23_2 + xp_23_1 + xp_22_8 + xp_22_7
 + xp_22_6 + xp_22_5 + xp_16_1 <= 26.9620253164557
 r_45: + xp_17_4 + xp_17_3 + xp_11_5 + xp_3_2 + xp_3_1 + xp_2_5
 <= 26.7924528301887
 r_46: + xp_18_5 + xp_18_3 + xp_0_7 + xp_0_4 + xp_0_3
 <= 25.0949747535465
 r_47: + xp_22_10 + xp_22_8 + xp_22_7 + xp_22_6 + xp_22_5 + xp_16_1
 + xp_13_1 <= 26.9620253164557
 r_48: + xp_13_0 <= 26.9620253164557
 r_49: + xp_17_5 <= 26.7924528301887
 r_50: 0 xp_0_0 <= 25.0949747535465
 r_51: + xp_8_1 + xp_1_1 <= 26.7924528301887
 r_52: + xp_8_0 <= 26.7924528301887
 r_53: + xp_1_0 <= 26.7924528301887
 r_54: + xp_18_6 + xp_0_5 <= 25.0949747535465
 r_55: + xp_11_5 + xp_2_5 <= 26.7924528301887
 r_56: 0 xp_0_0 <= 26.7924528301887
 r_57: + xp_22_1 <= 25.0949747535465
 r_58: + xp_23_5 + xp_22_8 + xp_22_3 + xp_6_1 + xp_5_0
 <= 25.0949747535465
 r_59: + xp_23_4 + xp_22_0 + xp_17_1 + xp_6_4 <= 25.0949747535465
 r_60: + xp_23_1 + xp_22_7 + xp_17_4 + xp_6_0 <= 25.0949747535465
 r_61: + xp_23_0 + xp_22_10 + xp_17_5 <= 25.0949747535465
 r_62: + xp_17_0 <= 25.0949747535465
 r_63: + xp_23_3 + xp_22_6 + xp_22_4 + xp_17_3 + xp_17_2 + xp_11_2
 + xp_6_2 + xp_5_2 <= 25.0949747535465
 r_64: + xp_23_2 + xp_22_9 + xp_22_5 + xp_22_2 + xp_6_3 + xp_5_1
 <= 25.0949747535465
 r_65: + xp_20_1 + xp_19_2 + xp_14_1 + xp_11_4 + xp_10_1 + xp_7_1
 + xp_4_1 + xp_2_2 + xp_0_6 + xp_0_4 <= 26.6425279789335
 r_66: + xp_21_4 + xp_20_2 + xp_19_4 + xp_7_0 <= 26.6425279789335
 r_67: + xp_20_3 + xp_19_1 + xp_10_0 + xp_0_8 <= 26.6425279789335
 r_68: + xp_20_0 <= 26.6425279789335

Bounds
 0 <= xp_0_0 <= 28.3009146050083
 0 <= xp_0_1 <= 9.06878663667274
 0 <= xp_0_2 <= 13.2122993002831
 0 <= xp_0_3 <= 1.73558119638934
 0 <= xp_0_4 <= 2.12646185111537
 0 <= xp_0_5 <= 4.00277785555753
 0 <= xp_0_6 <= 2.79881212194703
 0 <= xp_0_7 <= 1.73558119638934
 0 <= xp_0_8 <= 0.531615462778842
 0 <= xp_0_9 <= 0.531615462778842
 0 <= xp_1_0 <= 19.6646903410741
 0 <= xp_1_1 <= 16.1935279482954
 0 <= xp_2_0 <= 23.1984030801707
 0 <= xp_2_1 <= 0.948571489399417
 0 <= xp_2_2 <= 1.73558119638934
 0 <= xp_2_3 <= 4.5812956645876
 0 <= xp_2_4 <= 3.15843843048847
 0 <= xp_2_5 <= 1.73558119638934
 0 <= xp_3_0 <= 26.9874996499911
 0 <= xp_3_1 <= 3.00729013525731
 0 <= xp_3_2 <= 2.86134511245293
 0 <= xp_4_0 <= 23.3495374907522
 0 <= xp_4_1 <= 3.33564821296461
 0 <= xp_5_0 <= 10.0069446388938
 0 <= xp_5_1 <= 6.67129642592921
 0 <= xp_5_2 <= 10.0069446388938
 0 <= xp_6_0 <= 18.0125003500089
 0 <= xp_6_1 <= 1.50104169583407
 0 <= xp_6_2 <= 1.50104169583407
 0 <= xp_6_3 <= 1.50104169583407
 0 <= xp_6_4 <= 1.50104169583407
 0 <= xp_7_0 <= 18.7004777939328
 0 <= xp_7_1 <= 4.31549487552296
 0 <= xp_8_0 <= 19.3884552378568
 0 <= xp_8_1 <= 1.29256368252378
 0 <= xp_9_0 <= 19.1799772245465
 0 <= xp_10_0 <= 16.7824800714782
 0 <= xp_10_1 <= 2.39749715306831
 0 <= xp_11_0 <= 27.7692991422295
 0 <= xp_11_1 <= 17.5590554643154
 0 <= xp_11_2 <= 4.44057474118435
 0 <= xp_11_3 <= 10.2935932292895
 0 <= xp_11_4 <= 0.323137449468554
 0 <= xp_11_5 <= 0.323137449468554
 0 <= xp_12_0 <= 18.0125003500089
 0 <= xp_13_0 <= 14.2286244084272
 0 <= xp_13_1 <= 3.28352870963703
 0 <= xp_14_0 <= 12.5086807986173
 0 <= xp_14_1 <= 2.08478013310288
 0 <= xp_14_2 <= 2.08478013310288
 0 <= xp_15_0 <= 16.5114586541748
 0 <= xp_16_0 <= 14.854058448358
 0 <= xp_16_1 <= 0.990270563223868
 0 <= xp_17_0 <= 27.2116083075561
 0 <= xp_17_1 <= 11.6070047131443
 0 <= xp_17_2 <= 2.32452637724732
 0 <= xp_17_3 <= 1.16226318862366
 0 <= xp_17_4 <= 2.897844385013
 0 <= xp_17_5 <= 1.16226318862366
 0 <= xp_18_0 <= 22.5416938670809
 0 <= xp_18_1 <= 2.77275757702683
 0 <= xp_18_2 <= 13.5041546342679
 0 <= xp_18_3 <= 1.73558119638934
 0 <= xp_18_4 <= 1.73558119638934
 0 <= xp_18_5 <= 1.03717638063749
 0 <= xp_18_6 <= 1.03717638063749
 0 <= xp_19_0 <= 28.7752038208704
 0 <= xp_19_1 <= 4.02361871456377
 0 <= xp_19_2 <= 4.02361871456377
 0 <= xp_19_3 <= 4.02361871456377
 0 <= xp_19_4 <= 2.01180935728189
 0 <= xp_19_5 <= 1.00590467864094
 0 <= xp_20_0 <= 27.9412882964669
 0 <= xp_20_1 <= 3.81514070125348
 0 <= xp_20_2 <= 5.55072189764283
 0 <= xp_20_3 <= 5.72271105188022
 0 <= xp_21_0 <= 25.9763812854362
 0 <= xp_21_1 <= 5.09207026836019
 0 <= xp_21_2 <= 4.19561133996356
 0 <= xp_21_3 <= 5.09207026836019
 0 <= xp_21_4 <= 0.839122267992713
 0 <= xp_22_0 <= 12.6181369623488
 0 <= xp_22_1 <= 2.47046445772691
 0 <= xp_22_2 <= 3.67441630668784
 0 <= xp_22_3 <= 11.8832537010112
 0 <= xp_22_4 <= 2.47046445772691
 0 <= xp_22_5 <= 0.734883261337569
 0 <= xp_22_6 <= 0.734883261337569
 0 <= xp_22_7 <= 0.734883261337569
 0 <= xp_22_8 <= 1.73558119638934
 0 <= xp_22_9 <= 0.734883261337569
 0 <= xp_22_10 <= 1.73558119638934
 0 <= xp_23_0 <= 24.7672053370742
 0 <= xp_23_1 <= 6.14488076441475
 0 <= xp_23_2 <= 2.20464978401271
 0 <= xp_23_3 <= 3.20534771906448
 0 <= xp_23_4 <= 1.46976652267514
 0 <= xp_23_5 <= 1.73558119638934

End
